5 5
4 91 2 13 1 69 0 24 3 74
4 59 3 46 2 96 0 73 1 99
1 44 0 76 3 11 4 61 2 36
0 72 2 10 1 78 4 94 3 1
0 63 4 12 2 5 1 78 3 36
-1
0 1 2 5
0 2 4 5
0 1 2 4 5
0 2 5
0 1 3 4 5
-2
122 109 339
139 382 445
45 179 291 236
108 367
97 126 238 296

422 7
20 15 11 8 3
10 23 17 2 9
22 16 7 1 14
6 12 24 4 19
5 21 0 13 18
